CUSTOMERS : 10
VEHICLES : 4
0 310 241 135 103 178 260 66 244 146 42 
310 0 524 442 211 400 569 349 545 443 343 
241 524 0 125 336 343 146 183 229 98 200 
135 442 125 0 237 220 132 99 155 38 99 
103 211 336 237 0 215 361 154 335 245 140 
178 400 343 220 215 0 275 227 196 253 198 
260 569 146 132 361 275 0 230 100 146 228 
66 349 183 99 154 227 230 0 240 95 30 
244 545 229 155 335 196 100 240 0 187 226 
146 443 98 38 245 253 146 95 187 0 106 
42 343 200 99 140 198 228 30 226 106 0 
